
Gurobi 13.0.1 (linux64) logging started Fri Mar 27 01:38:19 2026

Set parameter LogFile to value "logs_sparse/100B_3F_robust_gamma_0d25_theta_0d05199999999999999_2026-03-27_01h37m52s.log"
Set parameter MIPGap to value 0.005
Set parameter OptimalityTol to value 0.005
Gurobi Optimizer version 13.0.1 build v13.0.1rc0 (linux64 - "Linux Mint 22")

CPU model: 12th Gen Intel(R) Core(TM) i7-12700, instruction set [SSE2|AVX|AVX2]
Thread count: 20 physical cores, 20 logical processors, using up to 20 threads

Non-default parameters:
TimeLimit  3600
SoftMemLimit  12
MIPGap  0.005
OptimalityTol  0.005

Optimize a model with 60721 rows, 1531121 columns and 4635098 nonzeros (Max)
Model fingerprint: 0x11425701
Model has 1485111 linear objective coefficients
Variable types: 16121 continuous, 1515000 integer (1515000 binary)
Coefficient statistics:
  Matrix range     [3e-05, 1e+05]
  Objective range  [1e+00, 3e+03]
  Bounds range     [1e+00, 1e+05]
  RHS range        [1e+00, 1e+05]

Presolve removed 36714 rows and 1241081 columns
Presolve time: 0.66s
Presolved: 24007 rows, 290040 columns, 921754 nonzeros
Variable types: 6446 continuous, 283594 integer (283594 binary)
Found heuristic solution: objective -4.94437e+08
Performing another presolve...
Presolve added 0 rows and 10 columns
Presolve removed 18 rows and 0 columns
Presolve time: 1.20s
Deterministic concurrent LP optimizer: primal simplex, dual simplex, and barrier
Showing barrier log only...

Root barrier log...

Ordering time: 0.59s

Barrier statistics:
 AA' NZ     : 4.530e+05
 Factor NZ  : 4.046e+06 (roughly 160 MB of memory)
 Factor Ops : 1.382e+09 (less than 1 second per iteration)
 Threads    : 18

                  Objective                Residual
Iter       Primal          Dual         Primal    Dual     Compl     Time
   0  -1.62882078e+12  1.34980946e+09  6.44e+07 1.02e+03  1.65e+07     4s
   1  -1.77564616e+11  3.26557976e+09  7.03e+06 1.29e+03  1.84e+06     4s
   2  -5.00973322e+09  2.32491814e+09  2.04e+05 4.58e+01  5.70e+04     4s
   3  -1.57125833e+08  1.43501055e+09  1.68e+04 3.64e+00  6.15e+03     4s
   4   2.26488734e+08  9.57034307e+08  4.01e+03 1.41e+00  1.92e+03     4s
   5   3.01209027e+08  5.53908512e+08  1.58e+03 4.17e-01  6.43e+02     4s
   6   3.34431896e+08  4.19936731e+08  4.89e+02 1.28e-01  2.06e+02     4s
   7   3.43509207e+08  3.78345162e+08  1.93e+02 5.31e-02  8.21e+01     4s
   8   3.46693493e+08  3.63304479e+08  9.36e+01 2.17e-02  3.91e+01     4s
   9   3.48017957e+08  3.56785741e+08  5.31e+01 1.05e-02  2.08e+01     4s
  10   3.48903477e+08  3.52619207e+08  2.62e+01 3.64e-03  8.94e+00     4s
  11   3.49325905e+08  3.51003652e+08  1.34e+01 1.23e-03  3.96e+00     4s
  12   3.49612044e+08  3.50633500e+08  4.96e+00 7.76e-04  2.08e+00     5s
  13   3.49764152e+08  3.50220348e+08  1.22e+00 2.91e-04  8.14e-01     5s
  14   3.49806522e+08  3.50077571e+08  6.11e-01 1.68e-04  4.68e-01     5s
  15   3.49855218e+08  3.50006324e+08  1.79e-01 9.94e-05  2.57e-01     5s
  16   3.49871232e+08  3.49976385e+08  9.22e-02 7.16e-05  1.78e-01     5s
  17   3.49880600e+08  3.49941198e+08  5.84e-02 3.67e-05  1.03e-01     5s
  18   3.49889558e+08  3.49925646e+08  3.34e-02 2.14e-05  6.10e-02     5s
  19   3.49897708e+08  3.49916462e+08  1.22e-02 1.25e-05  3.17e-02     5s
  20   3.49899804e+08  3.49910719e+08  7.27e-03 6.99e-06  1.85e-02     5s
  21   3.49900997e+08  3.49907837e+08  4.53e-03 4.02e-06  1.16e-02     5s
  22   3.49901826e+08  3.49906438e+08  2.77e-03 2.71e-06  7.80e-03     5s
  23   3.49902322e+08  3.49904952e+08  1.75e-03 1.40e-06  4.45e-03     5s
  24   3.49902499e+08  3.49904537e+08  1.40e-03 1.04e-06  3.44e-03     5s
  25   3.49902731e+08  3.49904169e+08  9.72e-04 7.25e-07  2.43e-03     6s
  26   3.49902817e+08  3.49903775e+08  8.12e-04 3.88e-07  1.62e-03     6s
  27   3.49903012e+08  3.49903638e+08  4.58e-04 2.76e-07  1.06e-03     6s
  28   3.49903060e+08  3.49903550e+08  3.73e-04 2.05e-07  8.28e-04     6s
  29   3.49903182e+08  3.49903453e+08  1.58e-04 1.28e-07  4.57e-04     6s
  30   3.49903199e+08  3.49903412e+08  1.31e-04 9.77e-08  3.59e-04     6s
  31   3.49903231e+08  3.49903370e+08  7.76e-05 6.50e-08  2.35e-04     6s
  32   3.49903242e+08  3.49903356e+08  5.82e-05 5.43e-08  1.92e-04     6s
  33   3.49903255e+08  3.49903327e+08  3.87e-05 3.30e-08  1.22e-04     6s
  34   3.49903262e+08  3.49903302e+08  2.71e-05 1.40e-08  6.67e-05     6s
  35   3.49903269e+08  3.49903288e+08  1.57e-05 4.46e-09  3.18e-05     7s
  36   3.49903277e+08  3.49903284e+08  3.76e-06 1.78e-09  1.10e-05     7s
  37   3.49903279e+08  3.49903282e+08  2.04e-06 5.48e-10  4.92e-06     7s
  38   3.49903280e+08  3.49903281e+08  1.98e-07 1.96e-10  1.14e-06     7s
  39   3.49903280e+08  3.49903280e+08  1.74e-08 1.29e-10  3.28e-07     7s
  40   3.49903280e+08  3.49903280e+08  1.03e-08 1.53e-10  2.33e-07     7s

Barrier solved model in 40 iterations and 7.01 seconds (8.54 work units)
Optimal objective 3.49903280e+08


Root crossover log...

    7183 DPushes remaining with DInf 0.0000000e+00                 7s
       0 DPushes remaining with DInf 0.0000000e+00                 7s

    5050 PPushes remaining with PInf 9.9143542e-03                 7s
       0 PPushes remaining with PInf 0.0000000e+00                 7s

  Push phase complete: Pinf 0.0000000e+00, Dinf 4.5701344e+04      7s


Root simplex log...

Iteration    Objective       Primal Inf.    Dual Inf.      Time
   11899    3.4990328e+08   0.000000e+00   4.570116e+04      7s
   13018    3.4990328e+08   0.000000e+00   0.000000e+00      8s
Crossover time: 0.88 seconds (0.59 work units)
Concurrent spin time: 0.00s

Solved with barrier

Root relaxation: objective 3.499033e+08, 13018 iterations, 5.40 seconds (4.82 work units)
Total elapsed time = 7.91s (DegenMoves)

    Nodes    |    Current Node    |     Objective Bounds      |     Work
 Expl Unexpl |  Obj  Depth IntInf | Incumbent    BestBd   Gap | It/Node Time

     0     0 3.4990e+08    0 6805 -4.944e+08 3.4990e+08   171%     -    8s
H    0     0                    -7.63130e+07 3.4990e+08   559%     -    9s
H    0     0                    -4586285.975 3.4990e+08  7729%     -    9s
H    0     0                    -3289990.065 3.4990e+08      -     -   10s
H    0     0                    1.726132e+08 3.4990e+08   103%     -   12s
H    0     0                    2.361662e+08 3.4990e+08  48.2%     -   13s
H    0     0                    2.527315e+08 3.4990e+08  38.4%     -   15s
     0     0 3.4990e+08    0 6877 2.5273e+08 3.4990e+08  38.4%     -  467s
H    0     0                    2.598394e+08 3.4990e+08  34.7%     -  532s
H    0     0                    2.609269e+08 3.4990e+08  34.1%     -  604s
H    0     0                    2.639654e+08 3.4990e+08  32.6%     -  660s
     0     0 3.4990e+08    0 7073 2.6397e+08 3.4990e+08  32.6%     - 1853s
H    0     0                    2.652309e+08 3.4990e+08  31.9%     - 1864s
H    0     0                    2.734321e+08 3.4990e+08  28.0%     - 1875s
H    0     0                    2.791963e+08 3.4990e+08  25.3%     - 1915s
H    0     0                    2.807083e+08 3.4990e+08  24.6%     - 2020s
H    0     0                    2.808586e+08 3.4990e+08  24.6%     - 2142s
H    0     0                    2.809342e+08 3.4990e+08  24.5%     - 2168s
H    0     0                    2.809431e+08 3.4990e+08  24.5%     - 2168s
H    0     0                    2.810082e+08 3.4990e+08  24.5%     - 2168s
H    0     0                    2.811770e+08 3.4990e+08  24.4%     - 2168s
H    0     0                    2.811771e+08 3.4990e+08  24.4%     - 2174s
H    0     0                    2.811803e+08 3.4990e+08  24.4%     - 2174s
H    0     0                    2.811842e+08 3.4990e+08  24.4%     - 2174s
H    0     0                    2.812022e+08 3.4990e+08  24.4%     - 2174s
H    0     0                    2.812042e+08 3.4990e+08  24.4%     - 2174s
H    0     0                    2.812229e+08 3.4990e+08  24.4%     - 2174s
H    0     0                    2.812581e+08 3.4990e+08  24.4%     - 2237s
H    0     0                    2.812682e+08 3.4990e+08  24.4%     - 2256s
H    0     0                    2.812939e+08 3.4990e+08  24.4%     - 2273s
     0     0 3.4990e+08    0 7017 2.8129e+08 3.4990e+08  24.4%     - 2450s
     0     0 3.4990e+08    0 7122 2.8129e+08 3.4990e+08  24.4%     - 2598s
     0     0 3.4990e+08    0 7102 2.8129e+08 3.4990e+08  24.4%     - 2675s
     0     0 3.4990e+08    0 7065 2.8129e+08 3.4990e+08  24.4%     - 2907s
     0     0 3.4990e+08    0 7064 2.8129e+08 3.4990e+08  24.4%     - 2953s
     0     0 3.4990e+08    0 7031 2.8129e+08 3.4990e+08  24.4%     - 3176s
     0     0 3.4990e+08    0 7031 2.8129e+08 3.4990e+08  24.4%     - 3178s
     0     0 3.4990e+08    0 7031 2.8129e+08 3.4990e+08  24.4%     - 3179s
     0     2 3.4990e+08    0 7021 2.8129e+08 3.4990e+08  24.4%     - 3436s

Cutting planes:
  MIR: 14
  Flow cover: 63
  RLT: 2241
  Relax-and-lift: 78

Explored 1 nodes (1174017 simplex iterations) in 3600.07 seconds (6716.51 work units)
Thread count was 20 (of 20 available processors)

Solution count 10: 2.81294e+08 2.81268e+08 2.81258e+08 ... 2.81177e+08

Time limit reached
Best objective 2.812939188508e+08, best bound 3.499006382032e+08, gap 24.3897%
